!    ibrav = 0, nat = 250, ntyp = 1
CELL_PARAMETERS bohr
  -27.2518067950062033    0.0000000000000000   27.2518067950062033
    0.0000000000000000   27.2518067950062033   27.2518067950062033
  -27.2518067950062033   27.2518067950062033    0.0000000000000000
ATOMIC_SPECIES
 Ge   72.64000   Ge.pbe-dn-kjpaw_psl.1.0.0.UPF
ATOMIC_POSITIONS crystal
 Ge   0.0000000000000000  0.0000000000000000  0.0000000000000000
 Ge   0.2000000000000000  0.0000000000000000  0.0000000000000000
 Ge   0.4000000000000000  0.0000000000000000  0.0000000000000000
 Ge   0.6000000000000001  0.0000000000000000  0.0000000000000000
 Ge   0.8000000000000000  0.0000000000000000  0.0000000000000000
 Ge   0.0000000000000000  0.2000000000000000  0.0000000000000000
 Ge   0.2000000000000000  0.2000000000000000  0.0000000000000000
 Ge   0.4000000000000000  0.2000000000000000  0.0000000000000000
 Ge   0.6000000000000001  0.2000000000000000  0.0000000000000000
 Ge   0.8000000000000000  0.2000000000000000  0.0000000000000000
 Ge   0.0000000000000000  0.4000000000000000  0.0000000000000000
 Ge   0.2000000000000000  0.4000000000000000  0.0000000000000000
 Ge   0.4000000000000000  0.4000000000000000  0.0000000000000000
 Ge   0.6000000000000001  0.4000000000000000  0.0000000000000000
 Ge   0.8000000000000000  0.4000000000000000  0.0000000000000000
 Ge   0.0000000000000000  0.6000000000000001  0.0000000000000000
 Ge   0.2000000000000000  0.6000000000000001  0.0000000000000000
 Ge   0.4000000000000000  0.6000000000000001  0.0000000000000000
 Ge   0.6000000000000001  0.6000000000000001  0.0000000000000000
 Ge   0.8000000000000000  0.6000000000000001  0.0000000000000000
 Ge   0.0000000000000000  0.8000000000000000  0.0000000000000000
 Ge   0.2000000000000000  0.8000000000000000  0.0000000000000000
 Ge   0.4000000000000000  0.8000000000000000  0.0000000000000000
 Ge   0.6000000000000001  0.8000000000000000  0.0000000000000000
 Ge   0.8000000000000000  0.8000000000000000  0.0000000000000000
 Ge   0.0000000000000000  0.0000000000000000  0.2000000000000000
 Ge   0.2000000000000000  0.0000000000000000  0.2000000000000000
 Ge   0.4000000000000000  0.0000000000000000  0.2000000000000000
 Ge   0.6000000000000001  0.0000000000000000  0.2000000000000000
 Ge   0.8000000000000000  0.0000000000000000  0.2000000000000000
 Ge   0.0000000000000000  0.2000000000000000  0.2000000000000000
 Ge   0.2000000000000000  0.2000000000000000  0.2000000000000000
 Ge   0.4000000000000000  0.2000000000000000  0.2000000000000000
 Ge   0.6000000000000001  0.2000000000000000  0.2000000000000000
 Ge   0.8000000000000000  0.2000000000000000  0.2000000000000000
 Ge   0.0000000000000000  0.4000000000000000  0.2000000000000000
 Ge   0.2000000000000000  0.4000000000000000  0.2000000000000000
 Ge   0.4000000000000000  0.4000000000000000  0.2000000000000000
 Ge   0.6000000000000001  0.4000000000000000  0.2000000000000000
 Ge   0.8000000000000000  0.4000000000000000  0.2000000000000000
 Ge   0.0000000000000000  0.6000000000000001  0.2000000000000000
 Ge   0.2000000000000000  0.6000000000000001  0.2000000000000000
 Ge   0.4000000000000000  0.6000000000000001  0.2000000000000000
 Ge   0.6000000000000001  0.6000000000000001  0.2000000000000000
 Ge   0.8000000000000000  0.6000000000000001  0.2000000000000000
 Ge   0.0000000000000000  0.8000000000000000  0.2000000000000000
 Ge   0.2000000000000000  0.8000000000000000  0.2000000000000000
 Ge   0.4000000000000000  0.8000000000000000  0.2000000000000000
 Ge   0.6000000000000001  0.8000000000000000  0.2000000000000000
 Ge   0.8000000000000000  0.8000000000000000  0.2000000000000000
 Ge   0.0000000000000000  0.0000000000000000  0.4000000000000000
 Ge   0.2000000000000000  0.0000000000000000  0.4000000000000000
 Ge   0.4000000000000000  0.0000000000000000  0.4000000000000000
 Ge   0.6000000000000001  0.0000000000000000  0.4000000000000000
 Ge   0.8000000000000000  0.0000000000000000  0.4000000000000000
 Ge   0.0000000000000000  0.2000000000000000  0.4000000000000000
 Ge   0.2000000000000000  0.2000000000000000  0.4000000000000000
 Ge   0.4000000000000000  0.2000000000000000  0.4000000000000000
 Ge   0.6000000000000001  0.2000000000000000  0.4000000000000000
 Ge   0.8000000000000000  0.2000000000000000  0.4000000000000000
 Ge   0.0000000000000000  0.4000000000000000  0.4000000000000000
 Ge   0.2000000000000000  0.4000000000000000  0.4000000000000000
 Ge   0.4000000000000000  0.4000000000000000  0.4000000000000000
 Ge   0.6000000000000001  0.4000000000000000  0.4000000000000000
 Ge   0.8000000000000000  0.4000000000000000  0.4000000000000000
 Ge   0.0000000000000000  0.6000000000000001  0.4000000000000000
 Ge   0.2000000000000000  0.6000000000000001  0.4000000000000000
 Ge   0.4000000000000000  0.6000000000000001  0.4000000000000000
 Ge   0.6000000000000001  0.6000000000000001  0.4000000000000000
 Ge   0.8000000000000000  0.6000000000000001  0.4000000000000000
 Ge   0.0000000000000000  0.8000000000000000  0.4000000000000000
 Ge   0.2000000000000000  0.8000000000000000  0.4000000000000000
 Ge   0.4000000000000000  0.8000000000000000  0.4000000000000000
 Ge   0.6000000000000001  0.8000000000000000  0.4000000000000000
 Ge   0.8000000000000000  0.8000000000000000  0.4000000000000000
 Ge   0.0000000000000000  0.0000000000000000  0.6000000000000001
 Ge   0.2000000000000000  0.0000000000000000  0.6000000000000001
 Ge   0.4000000000000000  0.0000000000000000  0.6000000000000001
 Ge   0.6000000000000001  0.0000000000000000  0.6000000000000001
 Ge   0.8000000000000000  0.0000000000000000  0.6000000000000001
 Ge   0.0000000000000000  0.2000000000000000  0.6000000000000001
 Ge   0.2000000000000000  0.2000000000000000  0.6000000000000001
 Ge   0.4000000000000000  0.2000000000000000  0.6000000000000001
 Ge   0.6000000000000001  0.2000000000000000  0.6000000000000001
 Ge   0.8000000000000000  0.2000000000000000  0.6000000000000001
 Ge   0.0000000000000000  0.4000000000000000  0.6000000000000001
 Ge   0.2000000000000000  0.4000000000000000  0.6000000000000001
 Ge   0.4000000000000000  0.4000000000000000  0.6000000000000001
 Ge   0.6000000000000001  0.4000000000000000  0.6000000000000001
 Ge   0.8000000000000000  0.4000000000000000  0.6000000000000001
 Ge   0.0000000000000000  0.6000000000000001  0.6000000000000001
 Ge   0.2000000000000000  0.6000000000000001  0.6000000000000001
 Ge   0.4000000000000000  0.6000000000000001  0.6000000000000001
 Ge   0.6000000000000001  0.6000000000000001  0.6000000000000001
 Ge   0.8000000000000000  0.6000000000000001  0.6000000000000001
 Ge   0.0000000000000000  0.8000000000000000  0.6000000000000001
 Ge   0.2000000000000000  0.8000000000000000  0.6000000000000001
 Ge   0.4000000000000000  0.8000000000000000  0.6000000000000001
 Ge   0.6000000000000001  0.8000000000000000  0.6000000000000001
 Ge   0.8000000000000000  0.8000000000000000  0.6000000000000001
 Ge   0.0000000000000000  0.0000000000000000  0.8000000000000000
 Ge   0.2000000000000000  0.0000000000000000  0.8000000000000000
 Ge   0.4000000000000000  0.0000000000000000  0.8000000000000000
 Ge   0.6000000000000001  0.0000000000000000  0.8000000000000000
 Ge   0.8000000000000000  0.0000000000000000  0.8000000000000000
 Ge   0.0000000000000000  0.2000000000000000  0.8000000000000000
 Ge   0.2000000000000000  0.2000000000000000  0.8000000000000000
 Ge   0.4000000000000000  0.2000000000000000  0.8000000000000000
 Ge   0.6000000000000001  0.2000000000000000  0.8000000000000000
 Ge   0.8000000000000000  0.2000000000000000  0.8000000000000000
 Ge   0.0000000000000000  0.4000000000000000  0.8000000000000000
 Ge   0.2000000000000000  0.4000000000000000  0.8000000000000000
 Ge   0.4000000000000000  0.4000000000000000  0.8000000000000000
 Ge   0.6000000000000001  0.4000000000000000  0.8000000000000000
 Ge   0.8000000000000000  0.4000000000000000  0.8000000000000000
 Ge   0.0000000000000000  0.6000000000000001  0.8000000000000000
 Ge   0.2000000000000000  0.6000000000000001  0.8000000000000000
 Ge   0.4000000000000000  0.6000000000000001  0.8000000000000000
 Ge   0.6000000000000001  0.6000000000000001  0.8000000000000000
 Ge   0.8000000000000000  0.6000000000000001  0.8000000000000000
 Ge   0.0000000000000000  0.8000000000000000  0.8000000000000000
 Ge   0.2000000000000000  0.8000000000000000  0.8000000000000000
 Ge   0.4000000000000000  0.8000000000000000  0.8000000000000000
 Ge   0.6000000000000001  0.8000000000000000  0.8000000000000000
 Ge   0.8000000000000000  0.8000000000000000  0.8000000000000000
 Ge   0.0500000000000000  0.0500000000000000  0.0500000000000000
 Ge   0.2500000000000000  0.0500000000000000  0.0500000000000000
 Ge   0.4500000000000000  0.0500000000000000  0.0500000000000000
 Ge   0.6500000000000000  0.0500000000000000  0.0500000000000000
 Ge   0.8500000000000001  0.0500000000000000  0.0500000000000000
 Ge   0.0500000000000000  0.2500000000000000  0.0500000000000000
 Ge   0.2500000000000000  0.2500000000000000  0.0500000000000000
 Ge   0.4500000000000000  0.2500000000000000  0.0500000000000000
 Ge   0.6500000000000000  0.2500000000000000  0.0500000000000000
 Ge   0.8500000000000001  0.2500000000000000  0.0500000000000000
 Ge   0.0500000000000000  0.4500000000000000  0.0500000000000000
 Ge   0.2500000000000000  0.4500000000000000  0.0500000000000000
 Ge   0.4500000000000000  0.4500000000000000  0.0500000000000000
 Ge   0.6500000000000000  0.4500000000000000  0.0500000000000000
 Ge   0.8500000000000001  0.4500000000000000  0.0500000000000000
 Ge   0.0500000000000000  0.6500000000000000  0.0500000000000000
 Ge   0.2500000000000000  0.6500000000000000  0.0500000000000000
 Ge   0.4500000000000000  0.6500000000000000  0.0500000000000000
 Ge   0.6500000000000000  0.6500000000000000  0.0500000000000000
 Ge   0.8500000000000001  0.6500000000000000  0.0500000000000000
 Ge   0.0500000000000000  0.8500000000000001  0.0500000000000000
 Ge   0.2500000000000000  0.8500000000000001  0.0500000000000000
 Ge   0.4500000000000000  0.8500000000000001  0.0500000000000000
 Ge   0.6500000000000000  0.8500000000000001  0.0500000000000000
 Ge   0.8500000000000001  0.8500000000000001  0.0500000000000000
 Ge   0.0500000000000000  0.0500000000000000  0.2500000000000000
 Ge   0.2500000000000000  0.0500000000000000  0.2500000000000000
 Ge   0.4500000000000000  0.0500000000000000  0.2500000000000000
 Ge   0.6500000000000000  0.0500000000000000  0.2500000000000000
 Ge   0.8500000000000001  0.0500000000000000  0.2500000000000000
 Ge   0.0500000000000000  0.2500000000000000  0.2500000000000000
 Ge   0.2500000000000000  0.2500000000000000  0.2500000000000000
 Ge   0.4500000000000000  0.2500000000000000  0.2500000000000000
 Ge   0.6500000000000000  0.2500000000000000  0.2500000000000000
 Ge   0.8500000000000001  0.2500000000000000  0.2500000000000000
 Ge   0.0500000000000000  0.4500000000000000  0.2500000000000000
 Ge   0.2500000000000000  0.4500000000000000  0.2500000000000000
 Ge   0.4500000000000000  0.4500000000000000  0.2500000000000000
 Ge   0.6500000000000000  0.4500000000000000  0.2500000000000000
 Ge   0.8500000000000001  0.4500000000000000  0.2500000000000000
 Ge   0.0500000000000000  0.6500000000000000  0.2500000000000000
 Ge   0.2500000000000000  0.6500000000000000  0.2500000000000000
 Ge   0.4500000000000000  0.6500000000000000  0.2500000000000000
 Ge   0.6500000000000000  0.6500000000000000  0.2500000000000000
 Ge   0.8500000000000001  0.6500000000000000  0.2500000000000000
 Ge   0.0500000000000000  0.8500000000000001  0.2500000000000000
 Ge   0.2500000000000000  0.8500000000000001  0.2500000000000000
 Ge   0.4500000000000000  0.8500000000000001  0.2500000000000000
 Ge   0.6500000000000000  0.8500000000000001  0.2500000000000000
 Ge   0.8500000000000001  0.8500000000000001  0.2500000000000000
 Ge   0.0500000000000000  0.0500000000000000  0.4500000000000000
 Ge   0.2500000000000000  0.0500000000000000  0.4500000000000000
 Ge   0.4500000000000000  0.0500000000000000  0.4500000000000000
 Ge   0.6500000000000000  0.0500000000000000  0.4500000000000000
 Ge   0.8500000000000001  0.0500000000000000  0.4500000000000000
 Ge   0.0500000000000000  0.2500000000000000  0.4500000000000000
 Ge   0.2500000000000000  0.2500000000000000  0.4500000000000000
 Ge   0.4500000000000000  0.2500000000000000  0.4500000000000000
 Ge   0.6500000000000000  0.2500000000000000  0.4500000000000000
 Ge   0.8500000000000001  0.2500000000000000  0.4500000000000000
 Ge   0.0500000000000000  0.4500000000000000  0.4500000000000000
 Ge   0.2500000000000000  0.4500000000000000  0.4500000000000000
 Ge   0.4500000000000000  0.4500000000000000  0.4500000000000000
 Ge   0.6500000000000000  0.4500000000000000  0.4500000000000000
 Ge   0.8500000000000001  0.4500000000000000  0.4500000000000000
 Ge   0.0500000000000000  0.6500000000000000  0.4500000000000000
 Ge   0.2500000000000000  0.6500000000000000  0.4500000000000000
 Ge   0.4500000000000000  0.6500000000000000  0.4500000000000000
 Ge   0.6500000000000000  0.6500000000000000  0.4500000000000000
 Ge   0.8500000000000001  0.6500000000000000  0.4500000000000000
 Ge   0.0500000000000000  0.8500000000000001  0.4500000000000000
 Ge   0.2500000000000000  0.8500000000000001  0.4500000000000000
 Ge   0.4500000000000000  0.8500000000000001  0.4500000000000000
 Ge   0.6500000000000000  0.8500000000000001  0.4500000000000000
 Ge   0.8500000000000001  0.8500000000000001  0.4500000000000000
 Ge   0.0500000000000000  0.0500000000000000  0.6500000000000000
 Ge   0.2500000000000000  0.0500000000000000  0.6500000000000000
 Ge   0.4500000000000000  0.0500000000000000  0.6500000000000000
 Ge   0.6500000000000000  0.0500000000000000  0.6500000000000000
 Ge   0.8500000000000001  0.0500000000000000  0.6500000000000000
 Ge   0.0500000000000000  0.2500000000000000  0.6500000000000000
 Ge   0.2500000000000000  0.2500000000000000  0.6500000000000000
 Ge   0.4500000000000000  0.2500000000000000  0.6500000000000000
 Ge   0.6500000000000000  0.2500000000000000  0.6500000000000000
 Ge   0.8500000000000001  0.2500000000000000  0.6500000000000000
 Ge   0.0500000000000000  0.4500000000000000  0.6500000000000000
 Ge   0.2500000000000000  0.4500000000000000  0.6500000000000000
 Ge   0.4500000000000000  0.4500000000000000  0.6500000000000000
 Ge   0.6500000000000000  0.4500000000000000  0.6500000000000000
 Ge   0.8500000000000001  0.4500000000000000  0.6500000000000000
 Ge   0.0500000000000000  0.6500000000000000  0.6500000000000000
 Ge   0.2500000000000000  0.6500000000000000  0.6500000000000000
 Ge   0.4500000000000000  0.6500000000000000  0.6500000000000000
 Ge   0.6500000000000000  0.6500000000000000  0.6500000000000000
 Ge   0.8500000000000001  0.6500000000000000  0.6500000000000000
 Ge   0.0500000000000000  0.8500000000000001  0.6500000000000000
 Ge   0.2500000000000000  0.8500000000000001  0.6500000000000000
 Ge   0.4500000000000000  0.8500000000000001  0.6500000000000000
 Ge   0.6500000000000000  0.8500000000000001  0.6500000000000000
 Ge   0.8500000000000001  0.8500000000000001  0.6500000000000000
 Ge   0.0500000000000000  0.0500000000000000  0.8500000000000001
 Ge   0.2500000000000000  0.0500000000000000  0.8500000000000001
 Ge   0.4500000000000000  0.0500000000000000  0.8500000000000001
 Ge   0.6500000000000000  0.0500000000000000  0.8500000000000001
 Ge   0.8500000000000001  0.0500000000000000  0.8500000000000001
 Ge   0.0500000000000000  0.2500000000000000  0.8500000000000001
 Ge   0.2500000000000000  0.2500000000000000  0.8500000000000001
 Ge   0.4500000000000000  0.2500000000000000  0.8500000000000001
 Ge   0.6500000000000000  0.2500000000000000  0.8500000000000001
 Ge   0.8500000000000001  0.2500000000000000  0.8500000000000001
 Ge   0.0500000000000000  0.4500000000000000  0.8500000000000001
 Ge   0.2500000000000000  0.4500000000000000  0.8500000000000001
 Ge   0.4500000000000000  0.4500000000000000  0.8500000000000001
 Ge   0.6500000000000000  0.4500000000000000  0.8500000000000001
 Ge   0.8500000000000001  0.4500000000000000  0.8500000000000001
 Ge   0.0500000000000000  0.6500000000000000  0.8500000000000001
 Ge   0.2500000000000000  0.6500000000000000  0.8500000000000001
 Ge   0.4500000000000000  0.6500000000000000  0.8500000000000001
 Ge   0.6500000000000000  0.6500000000000000  0.8500000000000001
 Ge   0.8500000000000001  0.6500000000000000  0.8500000000000001
 Ge   0.0500000000000000  0.8500000000000001  0.8500000000000001
 Ge   0.2500000000000000  0.8500000000000001  0.8500000000000001
 Ge   0.4500000000000000  0.8500000000000001  0.8500000000000001
 Ge   0.6500000000000000  0.8500000000000001  0.8500000000000001
 Ge   0.8500000000000001  0.8500000000000001  0.8500000000000001