!    ibrav = 0, nat = 250, ntyp = 1
CELL_PARAMETERS bohr
  -27.2518067950062033    0.0000000000000000   27.2518067950062033
    0.0000000000000000   27.2518067950062033   27.2518067950062033
  -27.2518067950062033   27.2518067950062033    0.0000000000000000
ATOMIC_SPECIES
 Ge   72.64000   Ge.pbe-dn-kjpaw_psl.1.0.0.UPF
ATOMIC_POSITIONS crystal
 Ge   0.0005189430458726  0.0000000000000000  0.0000000000000000
 Ge   0.2000000000000000  0.0000000000000000  0.0000000000000000
 Ge   0.4000000000000000  0.0000000000000000  0.0000000000000000
 Ge   0.6000000000000000  0.0000000000000000  0.0000000000000000
 Ge   0.8000000000000000  0.0000000000000000  0.0000000000000000
 Ge   0.0000000000000000  0.2000000000000000  0.0000000000000000
 Ge   0.2000000000000000  0.2000000000000000  0.0000000000000000
 Ge   0.4000000000000000  0.2000000000000000  0.0000000000000000
 Ge   0.6000000000000000  0.2000000000000000  0.0000000000000000
 Ge   0.8000000000000000  0.2000000000000000  0.0000000000000000
 Ge   0.0000000000000000  0.4000000000000000  0.0000000000000000
 Ge   0.2000000000000000  0.4000000000000000  0.0000000000000000
 Ge   0.4000000000000000  0.4000000000000000  0.0000000000000000
 Ge   0.6000000000000000  0.4000000000000000  0.0000000000000000
 Ge   0.8000000000000000  0.4000000000000000  0.0000000000000000
 Ge   0.0000000000000000  0.6000000000000000  0.0000000000000000
 Ge   0.2000000000000000  0.6000000000000000  0.0000000000000000
 Ge   0.4000000000000000  0.6000000000000000  0.0000000000000000
 Ge   0.6000000000000000  0.6000000000000000  0.0000000000000000
 Ge   0.8000000000000000  0.6000000000000000  0.0000000000000001
 Ge   0.0000000000000000  0.8000000000000000  0.0000000000000000
 Ge   0.2000000000000000  0.7999999999999999  0.0000000000000000
 Ge   0.4000000000000000  0.8000000000000000  0.0000000000000000
 Ge   0.6000000000000000  0.8000000000000000  0.9999999999999999
 Ge   0.8000000000000000  0.8000000000000000  0.0000000000000000
 Ge   0.0000000000000000  0.0000000000000000  0.2000000000000000
 Ge   0.2000000000000000  0.0000000000000000  0.2000000000000000
 Ge   0.4000000000000000  0.0000000000000000  0.2000000000000000
 Ge   0.6000000000000001  0.0000000000000000  0.2000000000000000
 Ge   0.8000000000000000  0.0000000000000000  0.2000000000000000
 Ge   0.0000000000000000  0.2000000000000000  0.2000000000000000
 Ge   0.2000000000000000  0.2000000000000000  0.2000000000000000
 Ge   0.4000000000000000  0.2000000000000000  0.2000000000000000
 Ge   0.6000000000000000  0.2000000000000000  0.2000000000000000
 Ge   0.8000000000000000  0.2000000000000000  0.1999999999999999
 Ge   0.0000000000000000  0.4000000000000000  0.2000000000000000
 Ge   0.2000000000000000  0.4000000000000000  0.2000000000000000
 Ge   0.4000000000000000  0.4000000000000000  0.2000000000000000
 Ge   0.6000000000000000  0.4000000000000000  0.2000000000000001
 Ge   0.8000000000000000  0.4000000000000000  0.2000000000000000
 Ge   0.0000000000000000  0.6000000000000000  0.2000000000000000
 Ge   0.2000000000000000  0.6000000000000000  0.2000000000000000
 Ge   0.4000000000000000  0.6000000000000001  0.1999999999999999
 Ge   0.6000000000000000  0.6000000000000000  0.2000000000000000
 Ge   0.8000000000000000  0.6000000000000001  0.2000000000000000
 Ge   0.0000000000000000  0.8000000000000000  0.2000000000000001
 Ge   0.1999999999999999  0.8000000000000000  0.2000000000000001
 Ge   0.4000000000000000  0.8000000000000000  0.2000000000000000
 Ge   0.6000000000000000  0.8000000000000000  0.2000000000000000
 Ge   0.8000000000000000  0.8000000000000000  0.2000000000000000
 Ge   0.0000000000000000  0.0000000000000000  0.4000000000000000
 Ge   0.2000000000000000  0.0000000000000000  0.4000000000000000
 Ge   0.4000000000000000  0.0000000000000000  0.4000000000000000
 Ge   0.6000000000000000  0.0000000000000000  0.4000000000000000
 Ge   0.7999999999999999  0.0000000000000001  0.3999999999999999
 Ge   0.0000000000000000  0.2000000000000000  0.4000000000000000
 Ge   0.2000000000000000  0.2000000000000000  0.4000000000000000
 Ge   0.4000000000000000  0.2000000000000000  0.4000000000000001
 Ge   0.6000000000000000  0.2000000000000000  0.4000000000000000
 Ge   0.8000000000000000  0.2000000000000000  0.4000000000000000
 Ge   0.0000000000000000  0.4000000000000000  0.4000000000000000
 Ge   0.2000000000000000  0.4000000000000000  0.4000000000000000
 Ge   0.4000000000000000  0.4000000000000000  0.4000000000000000
 Ge   0.6000000000000000  0.4000000000000000  0.4000000000000000
 Ge   0.7999999999999999  0.4000000000000000  0.4000000000000000
 Ge   0.0000000000000000  0.6000000000000000  0.4000000000000000
 Ge   0.2000000000000000  0.6000000000000000  0.3999999999999999
 Ge   0.4000000000000001  0.6000000000000000  0.4000000000000000
 Ge   0.6000000000000000  0.6000000000000000  0.4000000000000000
 Ge   0.8000000000000000  0.6000000000000000  0.3999999999999999
 Ge   0.0000000000000001  0.7999999999999999  0.4000000000000000
 Ge   0.2000000000000000  0.7999999999999999  0.4000000000000000
 Ge   0.4000000000000000  0.7999999999999999  0.4000000000000000
 Ge   0.6000000000000000  0.8000000000000000  0.4000000000000001
 Ge   0.8000000000000000  0.8000000000000000  0.3999999999999999
 Ge   0.0000000000000000  0.0000000000000000  0.6000000000000000
 Ge   0.2000000000000000  0.0000000000000000  0.6000000000000001
 Ge   0.4000000000000000  0.0000000000000000  0.6000000000000001
 Ge   0.6000000000000000  0.0000000000000000  0.6000000000000000
 Ge   0.8000000000000000  0.9999999999999999  0.6000000000000000
 Ge   0.0000000000000000  0.2000000000000000  0.6000000000000000
 Ge   0.2000000000000000  0.2000000000000000  0.6000000000000001
 Ge   0.4000000000000000  0.2000000000000000  0.6000000000000000
 Ge   0.6000000000000000  0.2000000000000001  0.6000000000000000
 Ge   0.8000000000000000  0.2000000000000000  0.6000000000000001
 Ge   0.0000000000000000  0.4000000000000000  0.6000000000000001
 Ge   0.2000000000000000  0.4000000000000000  0.6000000000000000
 Ge   0.4000000000000000  0.4000000000000001  0.6000000000000000
 Ge   0.5999999999999999  0.4000000000000000  0.6000000000000001
 Ge   0.8000000000000000  0.4000000000000000  0.6000000000000002
 Ge   0.0000000000000000  0.6000000000000000  0.6000000000000000
 Ge   0.2000000000000000  0.6000000000000000  0.6000000000000000
 Ge   0.4000000000000000  0.6000000000000000  0.6000000000000001
 Ge   0.6000000000000000  0.6000000000000000  0.6000000000000000
 Ge   0.8000000000000000  0.6000000000000000  0.6000000000000000
 Ge   0.0000000000000000  0.8000000000000000  0.6000000000000000
 Ge   0.2000000000000000  0.7999999999999999  0.6000000000000001
 Ge   0.4000000000000000  0.8000000000000000  0.6000000000000000
 Ge   0.6000000000000000  0.8000000000000000  0.6000000000000000
 Ge   0.8000000000000000  0.7999999999999999  0.6000000000000001
 Ge   0.0000000000000000  0.0000000000000000  0.8000000000000000
 Ge   0.2000000000000000  0.0000000000000000  0.8000000000000000
 Ge   0.4000000000000000  0.0000000000000001  0.8000000000000000
 Ge   0.6000000000000001  0.0000000000000000  0.8000000000000000
 Ge   0.8000000000000000  0.0000000000000000  0.7999999999999999
 Ge   0.0000000000000001  0.2000000000000000  0.8000000000000000
 Ge   0.2000000000000000  0.2000000000000000  0.8000000000000000
 Ge   0.4000000000000000  0.2000000000000000  0.7999999999999998
 Ge   0.6000000000000001  0.1999999999999999  0.7999999999999999
 Ge   0.8000000000000000  0.2000000000000000  0.8000000000000000
 Ge   0.0000000000000000  0.4000000000000000  0.8000000000000000
 Ge   0.2000000000000000  0.4000000000000000  0.8000000000000000
 Ge   0.4000000000000000  0.4000000000000000  0.7999999999999999
 Ge   0.6000000000000001  0.3999999999999999  0.8000000000000000
 Ge   0.8000000000000000  0.4000000000000000  0.8000000000000002
 Ge   0.0000000000000000  0.6000000000000000  0.8000000000000000
 Ge   0.2000000000000000  0.6000000000000000  0.7999999999999999
 Ge   0.4000000000000000  0.6000000000000001  0.8000000000000000
 Ge   0.6000000000000001  0.6000000000000000  0.8000000000000002
 Ge   0.8000000000000000  0.6000000000000000  0.7999999999999999
 Ge   0.0000000000000000  0.8000000000000000  0.7999999999999999
 Ge   0.1999999999999999  0.8000000000000000  0.8000000000000000
 Ge   0.3999999999999999  0.8000000000000000  0.7999999999999999
 Ge   0.6000000000000001  0.7999999999999999  0.7999999999999999
 Ge   0.8000000000000000  0.8000000000000000  0.8000000000000000
 Ge   0.0500000000000000  0.0500000000000000  0.0500000000000000
 Ge   0.2500000000000000  0.0500000000000000  0.0500000000000000
 Ge   0.4500000000000000  0.0500000000000000  0.0500000000000000
 Ge   0.6499999999999999  0.0500000000000000  0.0500000000000000
 Ge   0.8500000000000000  0.0500000000000000  0.0500000000000000
 Ge   0.0500000000000000  0.2500000000000000  0.0500000000000000
 Ge   0.2500000000000000  0.2500000000000000  0.0500000000000000
 Ge   0.4500000000000000  0.2500000000000000  0.0500000000000000
 Ge   0.6499999999999999  0.2500000000000001  0.0500000000000000
 Ge   0.8499999999999999  0.2500000000000001  0.0500000000000000
 Ge   0.0500000000000000  0.4500000000000000  0.0500000000000000
 Ge   0.2500000000000000  0.4500000000000000  0.0500000000000000
 Ge   0.4500000000000000  0.4500000000000000  0.0500000000000000
 Ge   0.6499999999999999  0.4500000000000001  0.0499999999999999
 Ge   0.8499999999999999  0.4500000000000000  0.0500000000000000
 Ge   0.0500000000000001  0.6499999999999999  0.0500000000000000
 Ge   0.2500000000000000  0.6499999999999999  0.0500000000000000
 Ge   0.4500000000000001  0.6499999999999999  0.0500000000000000
 Ge   0.6499999999999999  0.6499999999999999  0.0499999999999999
 Ge   0.8500000000000000  0.6499999999999999  0.0500000000000000
 Ge   0.0500000000000001  0.8500000000000000  0.0499999999999999
 Ge   0.2500000000000000  0.8500000000000000  0.0500000000000000
 Ge   0.4500000000000000  0.8499999999999999  0.0500000000000000
 Ge   0.6499999999999999  0.8500000000000000  0.0500000000000000
 Ge   0.8500000000000000  0.8500000000000000  0.0499999999999999
 Ge   0.0500000000000000  0.0500000000000000  0.2500000000000000
 Ge   0.2500000000000000  0.0500000000000000  0.2500000000000000
 Ge   0.4500000000000000  0.0499999999999999  0.2500000000000000
 Ge   0.6499999999999999  0.0500000000000000  0.2500000000000001
 Ge   0.8499999999999999  0.0500000000000001  0.2500000000000000
 Ge   0.0500000000000000  0.2500000000000000  0.2500000000000000
 Ge   0.2500000000000000  0.2500000000000000  0.2500000000000000
 Ge   0.4500000000000001  0.2500000000000000  0.2500000000000000
 Ge   0.6499999999999999  0.2500000000000000  0.2500000000000000
 Ge   0.8499999999999999  0.2500000000000001  0.2499999999999999
 Ge   0.0500000000000000  0.4500000000000000  0.2500000000000000
 Ge   0.2500000000000000  0.4500000000000000  0.2500000000000000
 Ge   0.4500000000000000  0.4500000000000000  0.2500000000000001
 Ge   0.6499999999999999  0.4500000000000000  0.2499999999999999
 Ge   0.8499999999999999  0.4500000000000000  0.2500000000000000
 Ge   0.0500000000000000  0.6500000000000000  0.2500000000000000
 Ge   0.2500000000000000  0.6499999999999999  0.2500000000000000
 Ge   0.4500000000000001  0.6499999999999999  0.2500000000000001
 Ge   0.6499999999999999  0.6499999999999999  0.2500000000000000
 Ge   0.8500000000000000  0.6500000000000000  0.2499999999999999
 Ge   0.0500000000000001  0.8500000000000000  0.2499999999999999
 Ge   0.2500000000000000  0.8500000000000000  0.2499999999999999
 Ge   0.4500000000000000  0.8499999999999999  0.2500000000000001
 Ge   0.6499999999999999  0.8500000000000000  0.2499999999999999
 Ge   0.8500000000000000  0.8500000000000000  0.2499999999999999
 Ge   0.0500000000000000  0.0500000000000000  0.4500000000000000
 Ge   0.2500000000000001  0.0500000000000000  0.4500000000000000
 Ge   0.4500000000000000  0.0500000000000000  0.4500000000000000
 Ge   0.6499999999999999  0.0500000000000000  0.4500000000000000
 Ge   0.8499999999999999  0.0500000000000001  0.4500000000000000
 Ge   0.0500000000000000  0.2500000000000000  0.4500000000000000
 Ge   0.2500000000000000  0.2500000000000000  0.4500000000000001
 Ge   0.4500000000000000  0.2500000000000001  0.4499999999999999
 Ge   0.6499999999999999  0.2500000000000001  0.4500000000000000
 Ge   0.8499999999999999  0.2500000000000001  0.4499999999999999
 Ge   0.0500000000000000  0.4500000000000000  0.4500000000000000
 Ge   0.2500000000000001  0.4500000000000000  0.4500000000000000
 Ge   0.4500000000000000  0.4500000000000000  0.4500000000000000
 Ge   0.6499999999999999  0.4500000000000000  0.4499999999999999
 Ge   0.8499999999999999  0.4500000000000000  0.4499999999999999
 Ge   0.0500000000000000  0.6500000000000000  0.4499999999999999
 Ge   0.2500000000000000  0.6499999999999999  0.4500000000000001
 Ge   0.4500000000000000  0.6500000000000000  0.4499999999999999
 Ge   0.6499999999999999  0.6500000000000000  0.4499999999999999
 Ge   0.8499999999999999  0.6500000000000000  0.4500000000000000
 Ge   0.0500000000000001  0.8500000000000000  0.4499999999999999
 Ge   0.2500000000000001  0.8499999999999999  0.4500000000000000
 Ge   0.4500000000000000  0.8500000000000000  0.4499999999999999
 Ge   0.6499999999999999  0.8500000000000000  0.4500000000000000
 Ge   0.8500000000000000  0.8500000000000000  0.4499999999999998
 Ge   0.0500000000000000  0.0500000000000000  0.6500000000000000
 Ge   0.2499999999999999  0.0500000000000001  0.6499999999999999
 Ge   0.4499999999999999  0.0500000000000001  0.6499999999999999
 Ge   0.6499999999999998  0.0500000000000001  0.6499999999999999
 Ge   0.8500000000000000  0.0500000000000000  0.6500000000000001
 Ge   0.0500000000000001  0.2499999999999999  0.6500000000000000
 Ge   0.2500000000000000  0.2500000000000000  0.6499999999999999
 Ge   0.4500000000000000  0.2500000000000001  0.6499999999999999
 Ge   0.6499999999999999  0.2500000000000000  0.6499999999999999
 Ge   0.8500000000000000  0.2499999999999999  0.6500000000000000
 Ge   0.0500000000000000  0.4500000000000000  0.6500000000000000
 Ge   0.2500000000000000  0.4500000000000001  0.6499999999999999
 Ge   0.4499999999999999  0.4500000000000000  0.6499999999999999
 Ge   0.6499999999999999  0.4500000000000001  0.6500000000000000
 Ge   0.8500000000000000  0.4500000000000000  0.6500000000000001
 Ge   0.0500000000000001  0.6499999999999999  0.6500000000000000
 Ge   0.2500000000000000  0.6499999999999999  0.6499999999999999
 Ge   0.4500000000000000  0.6500000000000000  0.6500000000000000
 Ge   0.6499999999999999  0.6500000000000000  0.6499999999999999
 Ge   0.8500000000000000  0.6499999999999999  0.6499999999999999
 Ge   0.0500000000000001  0.8500000000000000  0.6500000000000000
 Ge   0.2500000000000000  0.8500000000000000  0.6500000000000000
 Ge   0.4499999999999999  0.8500000000000000  0.6499999999999999
 Ge   0.6499999999999999  0.8500000000000000  0.6499999999999999
 Ge   0.8500000000000000  0.8500000000000000  0.6500000000000000
 Ge   0.0500000000000000  0.0500000000000000  0.8500000000000000
 Ge   0.2499999999999999  0.0500000000000001  0.8500000000000000
 Ge   0.4499999999999998  0.0500000000000001  0.8499999999999999
 Ge   0.6499999999999999  0.0500000000000000  0.8500000000000000
 Ge   0.8500000000000000  0.0500000000000000  0.8500000000000001
 Ge   0.0500000000000000  0.2500000000000000  0.8500000000000000
 Ge   0.2499999999999999  0.2500000000000001  0.8499999999999999
 Ge   0.4500000000000000  0.2500000000000001  0.8500000000000000
 Ge   0.6500000000000000  0.2499999999999999  0.8500000000000001
 Ge   0.8500000000000000  0.2500000000000000  0.8500000000000000
 Ge   0.0500000000000001  0.4499999999999999  0.8499999999999999
 Ge   0.2500000000000000  0.4500000000000000  0.8500000000000000
 Ge   0.4500000000000000  0.4500000000000000  0.8499999999999999
 Ge   0.6500000000000000  0.4499999999999999  0.8500000000000000
 Ge   0.8500000000000000  0.4499999999999999  0.8500000000000001
 Ge   0.0500000000000001  0.6499999999999999  0.8500000000000000
 Ge   0.2499999999999999  0.6500000000000000  0.8499999999999999
 Ge   0.4500000000000000  0.6500000000000000  0.8500000000000000
 Ge   0.6500000000000000  0.6499999999999999  0.8500000000000001
 Ge   0.8500000000000000  0.6499999999999999  0.8499999999999999
 Ge   0.0500000000000001  0.8500000000000000  0.8500000000000000
 Ge   0.2499999999999999  0.8500000000000000  0.8500000000000000
 Ge   0.4499999999999999  0.8500000000000000  0.8500000000000001
 Ge   0.6500000000000000  0.8500000000000000  0.8500000000000001
 Ge   0.8500000000000000  0.8500000000000000  0.8500000000000000