C primitive cell                        
   1.00000000000000     
     0.0000000000000000    1.7855392887263131    1.7855392887263131
     1.7855392887263131    0.0000000000000000    1.7855392887263131
     1.7855392887263131    1.7855392887263131    0.0000000000000000
  C            
               2
Direct
  0.0000000000000000  0.0000000000000000  0.0000000000000000
  0.7500000000000000  0.7500000000000000  0.7500000000000000
 
  0.00000000E+00  0.00000000E+00  0.00000000E+00
  0.00000000E+00  0.00000000E+00  0.00000000E+00
