generated by phonopy
   1.0
   -16.4057037019329783    0.0000000000000000   16.4057037019329783
     0.0000000000000000   16.4057037019329783   16.4057037019329783
   -16.4057037019329783   16.4057037019329783    0.0000000000000000
Si
 432
Direct
  0.0004310127709446  0.0000000000000000  0.0000000000000000
  0.1666666666666666  0.0000000000000000  0.0000000000000000
  0.3333333333333333  0.0000000000000000  0.0000000000000000
  0.5000000000000000  0.0000000000000000  0.0000000000000000
  0.6666666666666665  0.0000000000000000  0.0000000000000000
  0.8333333333333333  0.0000000000000000  0.0000000000000000
  0.0000000000000000  0.1666666666666666  0.0000000000000000
  0.1666666666666666  0.1666666666666667  0.0000000000000000
  0.3333333333333333  0.1666666666666667  0.0000000000000000
  0.5000000000000000  0.1666666666666667  0.0000000000000000
  0.6666666666666665  0.1666666666666667  0.0000000000000000
  0.8333333333333333  0.1666666666666667  0.0000000000000000
  0.0000000000000000  0.3333333333333333  0.0000000000000000
  0.1666666666666667  0.3333333333333333  0.0000000000000000
  0.3333333333333333  0.3333333333333333  0.0000000000000000
  0.5000000000000000  0.3333333333333333  0.0000000000000000
  0.6666666666666666  0.3333333333333334  0.9999999999999999
  0.8333333333333333  0.3333333333333333  0.0000000000000000
  0.0000000000000000  0.5000000000000000  0.0000000000000000
  0.1666666666666666  0.4999999999999999  0.0000000000000000
  0.3333333333333333  0.5000000000000000  0.0000000000000000
  0.5000000000000000  0.4999999999999999  0.0000000000000000
  0.6666666666666665  0.5000000000000000  0.0000000000000000
  0.8333333333333331  0.4999999999999999  0.0000000000000001
  0.0000000000000000  0.6666666666666665  0.0000000000000000
  0.1666666666666667  0.6666666666666666  0.0000000000000000
  0.3333333333333333  0.6666666666666666  0.9999999999999999
  0.5000000000000000  0.6666666666666665  0.0000000000000000
  0.6666666666666665  0.6666666666666666  0.0000000000000000
  0.8333333333333333  0.6666666666666666  0.9999999999999999
  0.0000000000000000  0.8333333333333333  0.0000000000000000
  0.1666666666666667  0.8333333333333333  0.0000000000000000
  0.3333333333333333  0.8333333333333333  0.0000000000000000
  0.4999999999999999  0.8333333333333331  0.0000000000000001
  0.6666666666666665  0.8333333333333333  0.0000000000000000
  0.8333333333333333  0.8333333333333333  0.0000000000000000
  0.0000000000000000  0.0000000000000000  0.1666666666666666
  0.1666666666666666  0.0000000000000000  0.1666666666666666
  0.3333333333333333  0.0000000000000000  0.1666666666666667
  0.5000000000000000  0.0000000000000000  0.1666666666666666
  0.6666666666666666  0.0000000000000000  0.1666666666666667
  0.8333333333333333  0.9999999999999999  0.1666666666666667
  0.0000000000000000  0.1666666666666667  0.1666666666666666
  0.1666666666666666  0.1666666666666667  0.1666666666666666
  0.3333333333333334  0.1666666666666666  0.1666666666666666
  0.5000000000000000  0.1666666666666667  0.1666666666666666
  0.6666666666666666  0.1666666666666666  0.1666666666666666
  0.8333333333333334  0.1666666666666666  0.1666666666666667
  0.0000000000000000  0.3333333333333333  0.1666666666666667
  0.1666666666666666  0.3333333333333334  0.1666666666666666
  0.3333333333333333  0.3333333333333333  0.1666666666666667
  0.4999999999999999  0.3333333333333333  0.1666666666666666
  0.6666666666666666  0.3333333333333334  0.1666666666666667
  0.8333333333333333  0.3333333333333333  0.1666666666666667
  0.0000000000000000  0.5000000000000000  0.1666666666666666
  0.1666666666666666  0.5000000000000000  0.1666666666666667
  0.3333333333333333  0.4999999999999999  0.1666666666666667
  0.4999999999999999  0.5000000000000000  0.1666666666666667
  0.6666666666666665  0.5000000000000000  0.1666666666666667
  0.8333333333333333  0.4999999999999999  0.1666666666666668
  0.0000000000000000  0.6666666666666666  0.1666666666666667
  0.1666666666666666  0.6666666666666666  0.1666666666666666
  0.3333333333333334  0.6666666666666666  0.1666666666666667
  0.4999999999999999  0.6666666666666666  0.1666666666666666
  0.6666666666666665  0.6666666666666665  0.1666666666666667
  0.8333333333333334  0.6666666666666666  0.1666666666666667
  0.9999999999999999  0.8333333333333333  0.1666666666666666
  0.1666666666666666  0.8333333333333334  0.1666666666666667
  0.3333333333333333  0.8333333333333333  0.1666666666666667
  0.4999999999999999  0.8333333333333333  0.1666666666666667
  0.6666666666666665  0.8333333333333331  0.1666666666666668
  0.8333333333333333  0.8333333333333333  0.1666666666666667
  0.0000000000000000  0.0000000000000000  0.3333333333333333
  0.1666666666666667  0.0000000000000000  0.3333333333333333
  0.3333333333333333  0.0000000000000000  0.3333333333333333
  0.5000000000000000  0.0000000000000000  0.3333333333333333
  0.6666666666666666  0.9999999999999999  0.3333333333333334
  0.8333333333333333  0.0000000000000000  0.3333333333333333
  0.0000000000000000  0.1666666666666667  0.3333333333333333
  0.1666666666666667  0.1666666666666666  0.3333333333333334
  0.3333333333333333  0.1666666666666667  0.3333333333333333
  0.4999999999999999  0.1666666666666667  0.3333333333333333
  0.6666666666666666  0.1666666666666666  0.3333333333333334
  0.8333333333333333  0.1666666666666667  0.3333333333333333
  0.0000000000000000  0.3333333333333333  0.3333333333333333
  0.1666666666666667  0.3333333333333333  0.3333333333333333
  0.3333333333333333  0.3333333333333333  0.3333333333333333
  0.4999999999999999  0.3333333333333333  0.3333333333333333
  0.6666666666666667  0.3333333333333333  0.3333333333333333
  0.8333333333333333  0.3333333333333333  0.3333333333333333
  0.0000000000000000  0.5000000000000000  0.3333333333333333
  0.1666666666666667  0.4999999999999999  0.3333333333333334
  0.3333333333333333  0.5000000000000000  0.3333333333333333
  0.5000000000000000  0.5000000000000000  0.3333333333333333
  0.6666666666666666  0.4999999999999999  0.3333333333333334
  0.8333333333333331  0.4999999999999999  0.3333333333333333
  0.9999999999999999  0.6666666666666666  0.3333333333333334
  0.1666666666666667  0.6666666666666666  0.3333333333333334
  0.3333333333333333  0.6666666666666667  0.3333333333333333
  0.4999999999999999  0.6666666666666666  0.3333333333333334
  0.6666666666666666  0.6666666666666665  0.3333333333333334
  0.8333333333333333  0.6666666666666666  0.3333333333333333
  0.0000000000000000  0.8333333333333333  0.3333333333333333
  0.1666666666666667  0.8333333333333333  0.3333333333333333
  0.3333333333333333  0.8333333333333333  0.3333333333333333
  0.4999999999999999  0.8333333333333331  0.3333333333333333
  0.6666666666666666  0.8333333333333331  0.3333333333333334
  0.8333333333333333  0.8333333333333333  0.3333333333333333
  0.0000000000000000  0.0000000000000000  0.5000000000000000
  0.1666666666666666  0.0000000000000000  0.4999999999999999
  0.3333333333333333  0.0000000000000000  0.5000000000000000
  0.5000000000000000  0.0000000000000000  0.5000000000000000
  0.6666666666666665  0.0000000000000000  0.5000000000000000
  0.8333333333333331  0.0000000000000001  0.4999999999999999
  0.0000000000000000  0.1666666666666666  0.4999999999999999
  0.1666666666666666  0.1666666666666667  0.4999999999999999
  0.3333333333333333  0.1666666666666667  0.4999999999999999
  0.5000000000000000  0.1666666666666666  0.4999999999999999
  0.6666666666666666  0.1666666666666667  0.4999999999999999
  0.8333333333333333  0.1666666666666667  0.4999999999999998
  0.0000000000000000  0.3333333333333333  0.5000000000000000
  0.1666666666666666  0.3333333333333334  0.4999999999999999
  0.3333333333333333  0.3333333333333333  0.5000000000000000
  0.5000000000000000  0.3333333333333333  0.5000000000000000
  0.6666666666666666  0.3333333333333334  0.4999999999999999
  0.8333333333333331  0.3333333333333334  0.4999999999999998
  0.0000000000000000  0.4999999999999999  0.5000000000000000
  0.1666666666666666  0.5000000000000000  0.5000000000000000
  0.3333333333333333  0.4999999999999999  0.5000000000000000
  0.5000000000000000  0.4999999999999999  0.5000000000000000
  0.6666666666666665  0.5000000000000000  0.5000000000000000
  0.8333333333333331  0.5000000000000000  0.4999999999999999
  0.0000000000000000  0.6666666666666665  0.5000000000000000
  0.1666666666666666  0.6666666666666666  0.4999999999999999
  0.3333333333333334  0.6666666666666666  0.4999999999999999
  0.5000000000000000  0.6666666666666665  0.5000000000000000
  0.6666666666666665  0.6666666666666666  0.4999999999999999
  0.8333333333333333  0.6666666666666667  0.4999999999999998
  0.0000000000000001  0.8333333333333331  0.4999999999999999
  0.1666666666666667  0.8333333333333333  0.4999999999999998
  0.3333333333333333  0.8333333333333333  0.5000000000000000
  0.5000000000000000  0.8333333333333331  0.4999999999999999
  0.6666666666666665  0.8333333333333331  0.4999999999999999
  0.8333333333333333  0.8333333333333333  0.4999999999999998
  0.0000000000000000  0.0000000000000000  0.6666666666666665
  0.1666666666666667  0.0000000000000000  0.6666666666666665
  0.3333333333333334  0.9999999999999999  0.6666666666666666
  0.4999999999999999  0.0000000000000000  0.6666666666666665
  0.6666666666666665  0.0000000000000000  0.6666666666666665
  0.8333333333333334  0.9999999999999999  0.6666666666666666
  0.0000000000000000  0.1666666666666667  0.6666666666666665
  0.1666666666666666  0.1666666666666666  0.6666666666666666
  0.3333333333333334  0.1666666666666666  0.6666666666666666
  0.4999999999999999  0.1666666666666667  0.6666666666666665
  0.6666666666666665  0.1666666666666667  0.6666666666666664
  0.8333333333333334  0.1666666666666666  0.6666666666666665
  0.9999999999999999  0.3333333333333334  0.6666666666666666
  0.1666666666666667  0.3333333333333333  0.6666666666666666
  0.3333333333333333  0.3333333333333333  0.6666666666666667
  0.4999999999999999  0.3333333333333333  0.6666666666666666
  0.6666666666666665  0.3333333333333334  0.6666666666666665
  0.8333333333333333  0.3333333333333333  0.6666666666666667
  0.0000000000000000  0.5000000000000000  0.6666666666666665
  0.1666666666666667  0.4999999999999999  0.6666666666666666
  0.3333333333333334  0.4999999999999999  0.6666666666666666
  0.4999999999999999  0.5000000000000000  0.6666666666666665
  0.6666666666666665  0.5000000000000000  0.6666666666666665
  0.8333333333333333  0.4999999999999998  0.6666666666666667
  0.0000000000000000  0.6666666666666666  0.6666666666666665
  0.1666666666666667  0.6666666666666665  0.6666666666666666
  0.3333333333333334  0.6666666666666665  0.6666666666666665
  0.4999999999999999  0.6666666666666665  0.6666666666666665
  0.6666666666666665  0.6666666666666666  0.6666666666666665
  0.8333333333333334  0.6666666666666665  0.6666666666666665
  0.9999999999999999  0.8333333333333333  0.6666666666666666
  0.1666666666666667  0.8333333333333333  0.6666666666666665
  0.3333333333333333  0.8333333333333333  0.6666666666666667
  0.4999999999999998  0.8333333333333333  0.6666666666666667
  0.6666666666666664  0.8333333333333333  0.6666666666666666
  0.8333333333333333  0.8333333333333333  0.6666666666666667
  0.0000000000000000  0.0000000000000000  0.8333333333333333
  0.1666666666666667  0.0000000000000000  0.8333333333333333
  0.3333333333333333  0.0000000000000000  0.8333333333333333
  0.4999999999999999  0.0000000000000001  0.8333333333333330
  0.6666666666666665  0.0000000000000000  0.8333333333333333
  0.8333333333333333  0.0000000000000000  0.8333333333333331
  0.0000000000000000  0.1666666666666667  0.8333333333333333
  0.1666666666666667  0.1666666666666666  0.8333333333333334
  0.3333333333333333  0.1666666666666667  0.8333333333333333
  0.4999999999999999  0.1666666666666668  0.8333333333333331
  0.6666666666666665  0.1666666666666667  0.8333333333333331
  0.8333333333333333  0.1666666666666667  0.8333333333333333
  0.0000000000000000  0.3333333333333333  0.8333333333333333
  0.1666666666666667  0.3333333333333333  0.8333333333333333
  0.3333333333333333  0.3333333333333333  0.8333333333333333
  0.4999999999999999  0.3333333333333334  0.8333333333333331
  0.6666666666666666  0.3333333333333334  0.8333333333333333
  0.8333333333333333  0.3333333333333333  0.8333333333333333
  0.0000000000000000  0.4999999999999999  0.8333333333333333
  0.1666666666666667  0.4999999999999998  0.8333333333333333
  0.3333333333333333  0.4999999999999999  0.8333333333333331
  0.4999999999999999  0.5000000000000000  0.8333333333333330
  0.6666666666666666  0.4999999999999999  0.8333333333333333
  0.8333333333333333  0.4999999999999999  0.8333333333333333
  0.0000000000000001  0.6666666666666665  0.8333333333333333
  0.1666666666666668  0.6666666666666665  0.8333333333333331
  0.3333333333333334  0.6666666666666666  0.8333333333333330
  0.4999999999999999  0.6666666666666666  0.8333333333333330
  0.6666666666666666  0.6666666666666665  0.8333333333333333
  0.8333333333333334  0.6666666666666665  0.8333333333333330
  0.0000000000000000  0.8333333333333333  0.8333333333333331
  0.1666666666666667  0.8333333333333333  0.8333333333333333
  0.3333333333333333  0.8333333333333333  0.8333333333333333
  0.4999999999999998  0.8333333333333333  0.8333333333333333
  0.6666666666666665  0.8333333333333333  0.8333333333333331
  0.8333333333333333  0.8333333333333333  0.8333333333333333
  0.1250000000000000  0.1250000000000000  0.1250000000000000
  0.2916666666666666  0.1250000000000000  0.1250000000000000
  0.4583333333333333  0.1250000000000000  0.1250000000000000
  0.6250000000000000  0.1250000000000000  0.1250000000000000
  0.7916666666666665  0.1250000000000000  0.1250000000000000
  0.9583333333333333  0.1250000000000001  0.1250000000000000
  0.1250000000000000  0.2916666666666666  0.1250000000000000
  0.2916666666666666  0.2916666666666666  0.1250000000000000
  0.4583333333333333  0.2916666666666666  0.1250000000000000
  0.6250000000000000  0.2916666666666666  0.1250000000000000
  0.7916666666666665  0.2916666666666666  0.1249999999999999
  0.9583333333333333  0.2916666666666666  0.1249999999999999
  0.1250000000000000  0.4583333333333333  0.1250000000000000
  0.2916666666666667  0.4583333333333333  0.1250000000000000
  0.4583333333333333  0.4583333333333333  0.1250000000000000
  0.6250000000000000  0.4583333333333333  0.1250000000000000
  0.7916666666666666  0.4583333333333333  0.1249999999999999
  0.9583333333333333  0.4583333333333333  0.1250000000000000
  0.1250000000000000  0.6250000000000000  0.1250000000000000
  0.2916666666666666  0.6249999999999999  0.1250000000000000
  0.4583333333333333  0.6250000000000000  0.1250000000000000
  0.6250000000000000  0.6250000000000000  0.1250000000000000
  0.7916666666666665  0.6250000000000000  0.1250000000000000
  0.9583333333333334  0.6250000000000000  0.1250000000000000
  0.1250000000000000  0.7916666666666665  0.1250000000000000
  0.2916666666666666  0.7916666666666665  0.1250000000000001
  0.4583333333333333  0.7916666666666666  0.1249999999999999
  0.6250000000000000  0.7916666666666665  0.1250000000000000
  0.7916666666666665  0.7916666666666666  0.1250000000000000
  0.9583333333333334  0.7916666666666666  0.1249999999999999
  0.1249999999999999  0.9583333333333333  0.1250000000000001
  0.2916666666666666  0.9583333333333334  0.1250000000000000
  0.4583333333333332  0.9583333333333334  0.1250000000000000
  0.6249999999999999  0.9583333333333333  0.1250000000000001
  0.7916666666666664  0.9583333333333333  0.1250000000000000
  0.9583333333333333  0.9583333333333333  0.1250000000000000
  0.1250000000000000  0.1250000000000000  0.2916666666666666
  0.2916666666666666  0.1250000000000000  0.2916666666666666
  0.4583333333333333  0.1250000000000000  0.2916666666666666
  0.6249999999999999  0.1250000000000000  0.2916666666666665
  0.7916666666666665  0.1250000000000001  0.2916666666666665
  0.9583333333333334  0.1250000000000000  0.2916666666666666
  0.1250000000000000  0.2916666666666666  0.2916666666666666
  0.2916666666666666  0.2916666666666666  0.2916666666666666
  0.4583333333333333  0.2916666666666666  0.2916666666666667
  0.6249999999999999  0.2916666666666666  0.2916666666666666
  0.7916666666666664  0.2916666666666667  0.2916666666666666
  0.9583333333333334  0.2916666666666666  0.2916666666666667
  0.1250000000000000  0.4583333333333333  0.2916666666666666
  0.2916666666666667  0.4583333333333333  0.2916666666666665
  0.4583333333333333  0.4583333333333333  0.2916666666666666
  0.6250000000000000  0.4583333333333334  0.2916666666666665
  0.7916666666666665  0.4583333333333334  0.2916666666666665
  0.9583333333333334  0.4583333333333332  0.2916666666666666
  0.1250000000000000  0.6250000000000000  0.2916666666666666
  0.2916666666666666  0.6249999999999999  0.2916666666666666
  0.4583333333333334  0.6250000000000000  0.2916666666666666
  0.6250000000000000  0.6250000000000000  0.2916666666666666
  0.7916666666666665  0.6250000000000000  0.2916666666666665
  0.9583333333333334  0.6250000000000000  0.2916666666666666
  0.1250000000000000  0.7916666666666665  0.2916666666666666
  0.2916666666666666  0.7916666666666665  0.2916666666666666
  0.4583333333333333  0.7916666666666666  0.2916666666666666
  0.6250000000000000  0.7916666666666666  0.2916666666666665
  0.7916666666666665  0.7916666666666666  0.2916666666666665
  0.9583333333333334  0.7916666666666665  0.2916666666666666
  0.1249999999999999  0.9583333333333331  0.2916666666666667
  0.2916666666666666  0.9583333333333333  0.2916666666666667
  0.4583333333333333  0.9583333333333333  0.2916666666666666
  0.6249999999999999  0.9583333333333333  0.2916666666666667
  0.7916666666666664  0.9583333333333333  0.2916666666666667
  0.9583333333333333  0.9583333333333333  0.2916666666666667
  0.1250000000000000  0.1250000000000000  0.4583333333333333
  0.2916666666666667  0.1249999999999999  0.4583333333333333
  0.4583333333333333  0.1250000000000000  0.4583333333333333
  0.6250000000000000  0.1250000000000000  0.4583333333333333
  0.7916666666666666  0.1249999999999999  0.4583333333333334
  0.9583333333333333  0.1250000000000001  0.4583333333333332
  0.1250000000000000  0.2916666666666667  0.4583333333333333
  0.2916666666666666  0.2916666666666666  0.4583333333333334
  0.4583333333333332  0.2916666666666666  0.4583333333333333
  0.6249999999999999  0.2916666666666666  0.4583333333333334
  0.7916666666666665  0.2916666666666666  0.4583333333333334
  0.9583333333333333  0.2916666666666667  0.4583333333333333
  0.1250000000000000  0.4583333333333333  0.4583333333333333
  0.2916666666666667  0.4583333333333333  0.4583333333333333
  0.4583333333333333  0.4583333333333333  0.4583333333333333
  0.6250000000000000  0.4583333333333333  0.4583333333333332
  0.7916666666666666  0.4583333333333333  0.4583333333333333
  0.9583333333333333  0.4583333333333333  0.4583333333333333
  0.1249999999999999  0.6250000000000000  0.4583333333333333
  0.2916666666666666  0.6250000000000000  0.4583333333333334
  0.4583333333333333  0.6250000000000001  0.4583333333333332
  0.6249999999999999  0.6250000000000000  0.4583333333333333
  0.7916666666666666  0.6249999999999999  0.4583333333333335
  0.9583333333333333  0.6250000000000001  0.4583333333333333
  0.1250000000000000  0.7916666666666666  0.4583333333333334
  0.2916666666666666  0.7916666666666665  0.4583333333333334
  0.4583333333333333  0.7916666666666666  0.4583333333333333
  0.6249999999999999  0.7916666666666666  0.4583333333333333
  0.7916666666666666  0.7916666666666665  0.4583333333333334
  0.9583333333333333  0.7916666666666666  0.4583333333333333
  0.1249999999999999  0.9583333333333331  0.4583333333333333
  0.2916666666666667  0.9583333333333333  0.4583333333333333
  0.4583333333333333  0.9583333333333333  0.4583333333333333
  0.6249999999999999  0.9583333333333331  0.4583333333333334
  0.7916666666666666  0.9583333333333331  0.4583333333333334
  0.9583333333333333  0.9583333333333333  0.4583333333333333
  0.1250000000000000  0.1250000000000000  0.6250000000000000
  0.2916666666666666  0.1250000000000000  0.6250000000000000
  0.4583333333333333  0.1250000000000000  0.6250000000000000
  0.6250000000000000  0.1250000000000000  0.6250000000000000
  0.7916666666666665  0.1250000000000000  0.6250000000000000
  0.9583333333333333  0.1250000000000001  0.6249999999999999
  0.1250000000000000  0.2916666666666666  0.6250000000000000
  0.2916666666666666  0.2916666666666666  0.6249999999999999
  0.4583333333333333  0.2916666666666666  0.6250000000000000
  0.6250000000000000  0.2916666666666666  0.6250000000000000
  0.7916666666666665  0.2916666666666666  0.6250000000000000
  0.9583333333333334  0.2916666666666666  0.6250000000000000
  0.1249999999999999  0.4583333333333333  0.6250000000000000
  0.2916666666666666  0.4583333333333334  0.6249999999999999
  0.4583333333333332  0.4583333333333333  0.6250000000000000
  0.6250000000000000  0.4583333333333334  0.6250000000000001
  0.7916666666666665  0.4583333333333334  0.6250000000000000
  0.9583333333333333  0.4583333333333333  0.6250000000000000
  0.1250000000000000  0.6250000000000000  0.6250000000000000
  0.2916666666666666  0.6250000000000000  0.6250000000000000
  0.4583333333333333  0.6250000000000000  0.6249999999999999
  0.6250000000000000  0.6249999999999999  0.6250000000000000
  0.7916666666666665  0.6250000000000000  0.6250000000000000
  0.9583333333333334  0.6250000000000000  0.6249999999999999
  0.1250000000000000  0.7916666666666665  0.6250000000000000
  0.2916666666666666  0.7916666666666665  0.6250000000000000
  0.4583333333333333  0.7916666666666666  0.6250000000000000
  0.6250000000000000  0.7916666666666665  0.6250000000000000
  0.7916666666666665  0.7916666666666665  0.6250000000000000
  0.9583333333333334  0.7916666666666666  0.6250000000000000
  0.1249999999999999  0.9583333333333333  0.6250000000000002
  0.2916666666666665  0.9583333333333334  0.6250000000000000
  0.4583333333333332  0.9583333333333334  0.6250000000000000
  0.6249999999999999  0.9583333333333333  0.6250000000000002
  0.7916666666666664  0.9583333333333333  0.6250000000000001
  0.9583333333333333  0.9583333333333333  0.6250000000000000
  0.1250000000000000  0.1250000000000000  0.7916666666666665
  0.2916666666666666  0.1250000000000001  0.7916666666666665
  0.4583333333333334  0.1249999999999999  0.7916666666666666
  0.6250000000000000  0.1250000000000000  0.7916666666666665
  0.7916666666666665  0.1250000000000000  0.7916666666666665
  0.9583333333333334  0.1249999999999999  0.7916666666666666
  0.1250000000000000  0.2916666666666666  0.7916666666666665
  0.2916666666666666  0.2916666666666667  0.7916666666666664
  0.4583333333333334  0.2916666666666665  0.7916666666666666
  0.6250000000000000  0.2916666666666666  0.7916666666666665
  0.7916666666666665  0.2916666666666666  0.7916666666666665
  0.9583333333333334  0.2916666666666665  0.7916666666666665
  0.1249999999999999  0.4583333333333334  0.7916666666666666
  0.2916666666666665  0.4583333333333334  0.7916666666666665
  0.4583333333333333  0.4583333333333333  0.7916666666666667
  0.6250000000000000  0.4583333333333334  0.7916666666666666
  0.7916666666666665  0.4583333333333334  0.7916666666666665
  0.9583333333333334  0.4583333333333332  0.7916666666666667
  0.1250000000000000  0.6250000000000000  0.7916666666666665
  0.2916666666666665  0.6250000000000000  0.7916666666666665
  0.4583333333333334  0.6249999999999999  0.7916666666666666
  0.6250000000000000  0.6250000000000000  0.7916666666666665
  0.7916666666666665  0.6250000000000000  0.7916666666666665
  0.9583333333333334  0.6249999999999999  0.7916666666666666
  0.1250000000000000  0.7916666666666666  0.7916666666666665
  0.2916666666666665  0.7916666666666666  0.7916666666666665
  0.4583333333333334  0.7916666666666665  0.7916666666666665
  0.6250000000000000  0.7916666666666665  0.7916666666666665
  0.7916666666666665  0.7916666666666666  0.7916666666666665
  0.9583333333333334  0.7916666666666665  0.7916666666666665
  0.1249999999999999  0.9583333333333333  0.7916666666666667
  0.2916666666666665  0.9583333333333334  0.7916666666666665
  0.4583333333333333  0.9583333333333333  0.7916666666666667
  0.6249999999999999  0.9583333333333333  0.7916666666666667
  0.7916666666666664  0.9583333333333333  0.7916666666666666
  0.9583333333333333  0.9583333333333333  0.7916666666666667
  0.1249999999999999  0.1250000000000001  0.9583333333333330
  0.2916666666666667  0.1249999999999999  0.9583333333333333
  0.4583333333333333  0.1249999999999999  0.9583333333333331
  0.6249999999999999  0.1250000000000000  0.9583333333333330
  0.7916666666666666  0.1250000000000000  0.9583333333333333
  0.9583333333333334  0.1250000000000000  0.9583333333333331
  0.1249999999999999  0.2916666666666667  0.9583333333333333
  0.2916666666666667  0.2916666666666666  0.9583333333333334
  0.4583333333333332  0.2916666666666666  0.9583333333333334
  0.6249999999999998  0.2916666666666667  0.9583333333333333
  0.7916666666666665  0.2916666666666666  0.9583333333333333
  0.9583333333333333  0.2916666666666666  0.9583333333333333
  0.1249999999999999  0.4583333333333334  0.9583333333333331
  0.2916666666666667  0.4583333333333333  0.9583333333333333
  0.4583333333333333  0.4583333333333333  0.9583333333333333
  0.6249999999999999  0.4583333333333334  0.9583333333333331
  0.7916666666666666  0.4583333333333333  0.9583333333333333
  0.9583333333333333  0.4583333333333333  0.9583333333333333
  0.1249999999999999  0.6250000000000000  0.9583333333333330
  0.2916666666666667  0.6249999999999998  0.9583333333333333
  0.4583333333333334  0.6250000000000000  0.9583333333333331
  0.6249999999999999  0.6250000000000000  0.9583333333333330
  0.7916666666666666  0.6249999999999999  0.9583333333333333
  0.9583333333333334  0.6250000000000000  0.9583333333333331
  0.1250000000000000  0.7916666666666666  0.9583333333333330
  0.2916666666666667  0.7916666666666664  0.9583333333333333
  0.4583333333333334  0.7916666666666665  0.9583333333333330
  0.6249999999999999  0.7916666666666666  0.9583333333333330
  0.7916666666666666  0.7916666666666665  0.9583333333333333
  0.9583333333333334  0.7916666666666665  0.9583333333333330
  0.1249999999999998  0.9583333333333333  0.9583333333333333
  0.2916666666666667  0.9583333333333333  0.9583333333333333
  0.4583333333333333  0.9583333333333333  0.9583333333333333
  0.6249999999999998  0.9583333333333333  0.9583333333333333
  0.7916666666666665  0.9583333333333333  0.9583333333333331
  0.9583333333333333  0.9583333333333333  0.9583333333333333
